(set-info :smt-lib-version 2.6)
(set-logic AUFBVFPDTNIRA)
(set-info :source |
Generated by: AdaCore
Generated on: 2020-03-06
Generator: SPARK
Application: Program verification for Ada
Target solver: CVC4
|)
(set-info :license "https://creativecommons.org/licenses/by/4.0/")
(set-info :category "industrial")
(set-info :status unknown)
;;; generated by SMT-LIB2 driver
;;; SMT-LIB2 driver: bit-vectors, common part
;;; SMT-LIB2: integer arithmetic
;;; SMT-LIB2: real arithmetic
(define-fun fp.isFinite32 ((x Float32)) Bool (not (or (fp.isInfinite x) (fp.isNaN x))))
(define-fun fp.isIntegral32 ((x Float32)) Bool (or (fp.isZero x) (and (fp.isNormal x) (= x (fp.roundToIntegral RNE x)))))
(declare-sort string 0)

(declare-datatypes ((tuple0 0))
(((Tuple0))))
(declare-sort us_private 0)

(declare-fun private__bool_eq (us_private us_private) Bool)

(declare-const us_null_ext__ us_private)

(declare-sort us_type_of_heap 0)

(declare-datatypes ((us_type_of_heap__ref 0))
(((us_type_of_heap__refqtmk (us_type_of_heap__content us_type_of_heap)))))
(declare-sort us_image 0)

(declare-datatypes ((int__ref 0))
(((int__refqtmk (int__content Int)))))
(declare-datatypes ((bool__ref 0))
(((bool__refqtmk (bool__content Bool)))))
(declare-datatypes ((us_fixed__ref 0))
(((us_fixed__refqtmk (us_fixed__content Int)))))
(declare-datatypes ((real__ref 0))
(((real__refqtmk (real__content Real)))))
(declare-datatypes ((us_private__ref 0))
(((us_private__refqtmk (us_private__content us_private)))))
(define-fun int__ref___projection ((a int__ref)) Int (int__content a))

(define-fun us_fixed__ref___projection ((a us_fixed__ref)) Int (us_fixed__content
                                                               a))

(define-fun bool__ref___projection ((a bool__ref)) Bool (bool__content a))

(define-fun real__ref___projection ((a real__ref)) Real (real__content a))

(define-fun us_private__ref___projection ((a us_private__ref)) us_private 
  (us_private__content a))

(declare-fun pow2 (Int) Int)

(define-fun is_plus_infinity ((x Float32)) Bool (and (fp.isInfinite x)
                                                (fp.isPositive x)))

(define-fun is_minus_infinity ((x Float32)) Bool (and (fp.isInfinite x)
                                                 (fp.isNegative x)))

(define-fun is_plus_zero ((x Float32)) Bool (and (fp.isZero x)
                                            (fp.isPositive x)))

(define-fun is_minus_zero ((x Float32)) Bool (and (fp.isZero x)
                                             (fp.isNegative x)))

(declare-const max_int Int)

(define-fun in_int_range ((i Int)) Bool (and (<= (- max_int) i)
                                        (<= i max_int)))

(define-fun in_safe_int_range ((i Int)) Bool (and (<= (- 16777216) i)
                                             (<= i 16777216)))

(define-fun same_sign ((x Float32)
  (y Float32)) Bool (or (and (fp.isPositive x) (fp.isPositive y))
                    (and (fp.isNegative x) (fp.isNegative y))))

(define-fun diff_sign ((x Float32)
  (y Float32)) Bool (or (and (fp.isPositive x) (fp.isNegative y))
                    (and (fp.isNegative x) (fp.isPositive y))))

(define-fun product_sign ((z Float32) (x Float32)
  (y Float32)) Bool (and (=> (same_sign x y) (fp.isPositive z))
                    (=> (diff_sign x y) (fp.isNegative z))))

(define-fun sqr ((x Real)) Real (* x x))

(declare-fun sqrt1 (Real) Real)

(define-fun same_sign_real ((x Float32)
  (r Real)) Bool (or (and (fp.isPositive x) (< 0.0 r))
                 (and (fp.isNegative x) (< r 0.0))))

(declare-datatypes ((t__ref 0))
(((t__refqtmk (t__content Float32)))))
(declare-sort float__ 0)

(declare-fun user_eq (float__ float__) Bool)

(declare-fun attr__ATTRIBUTE_IMAGE (Float32) us_image)

(declare-fun attr__ATTRIBUTE_VALUE__pre_check (us_image) Bool)

(declare-fun attr__ATTRIBUTE_VALUE (us_image) Float32)

(declare-const dummy float__)

(declare-datatypes ((float____ref 0))
(((float____refqtmk (float____content float__)))))
(define-fun float____ref_float____content__projection ((a float____ref)) float__ 
  (float____content a))

(define-fun dynamic_invariant ((temp___expr_60 Float32)
  (temp___is_init_56 Bool) (temp___skip_constant_57 Bool)
  (temp___do_toplevel_58 Bool)
  (temp___do_typ_inv_59 Bool)) Bool (=>
                                    (or (= temp___is_init_56 true)
                                    (fp.leq (fp.neg (fp #b0 #b11111110 #b11111111111111111111111)) (fp #b0 #b11111110 #b11111111111111111111111)))
                                    (fp.isFinite32 temp___expr_60)))

(declare-const x Float32)

(declare-const attr__ATTRIBUTE_ADDRESS Int)

(declare-const y Float32)

(declare-const attr__ATTRIBUTE_ADDRESS1 Int)

(declare-const z Float32)

(declare-const attr__ATTRIBUTE_ADDRESS2 Int)

(declare-const attr__ATTRIBUTE_ADDRESS3 Int)

(declare-const attr__ATTRIBUTE_ADDRESS4 Int)

(declare-const attr__ATTRIBUTE_ADDRESS5 Int)

(declare-sort t_rate 0)

(define-fun in_range ((x1 Float32)) Bool (and (fp.isFinite32 x1)
                                         (and
                                         (fp.leq (fp.neg (fp #b0 #b10001010 #b01110111000000000000000)) x1)
                                         (fp.leq x1 (fp #b0 #b10001010 #b01110111000000000000000)))))

(declare-fun user_eq1 (t_rate t_rate) Bool)

(declare-fun attr__ATTRIBUTE_IMAGE1 (Float32) us_image)

(declare-fun attr__ATTRIBUTE_VALUE__pre_check1 (us_image) Bool)

(declare-fun attr__ATTRIBUTE_VALUE1 (us_image) Float32)

(declare-const dummy1 t_rate)

(declare-datatypes ((t_rate__ref 0))
(((t_rate__refqtmk (t_rate__content t_rate)))))
(define-fun t_rate__ref_t_rate__content__projection ((a t_rate__ref)) t_rate 
  (t_rate__content a))

(define-fun dynamic_invariant1 ((temp___expr_158 Float32)
  (temp___is_init_154 Bool) (temp___skip_constant_155 Bool)
  (temp___do_toplevel_156 Bool)
  (temp___do_typ_inv_157 Bool)) Bool (=>
                                     (or (= temp___is_init_154 true)
                                     (fp.leq (fp.neg (fp #b0 #b10001010 #b01110111000000000000000)) (fp #b0 #b10001010 #b01110111000000000000000)))
                                     (in_range temp___expr_158)))

(declare-fun to_rep (t_rate) Float32)

(declare-fun of_rep (Float32) t_rate)

;; inversion_axiom
  (assert
  (forall ((x1 t_rate))
  (! (= (of_rep (to_rep x1)) x1) :pattern ((to_rep x1)) )))

;; range_axiom
  (assert
  (forall ((x1 t_rate)) (! (in_range (to_rep x1)) :pattern ((to_rep x1)) )))

;; coerce_axiom
  (assert
  (forall ((x1 Float32))
  (! (=> (in_range x1) (= (to_rep (of_rep x1)) x1)) :pattern ((to_rep
                                                              (of_rep x1))) )))

(assert
;; defqtvc
 ;; File "get_out_subtype.adb", line 2, characters 0-0
  (not
  (forall ((roll_rate_desired Float32) (pitch_rate_desired Float32)
  (yaw_rate_desired Float32)
  (get_out_subtype__controller_get_desired_rate__yaw_rate_desired Float32)
  (get_out_subtype__controller_get_desired_rate__pitch_rate_desired Float32)
  (get_out_subtype__controller_get_desired_rate__roll_rate_desired Float32))
  (=> (dynamic_invariant x true false true true)
  (=> (dynamic_invariant y true false true true)
  (=> (dynamic_invariant z true false true true)
  (=> (= roll_rate_desired (fp #b0 #b00000000 #b00000000000000000000000))
  (=> (dynamic_invariant1 roll_rate_desired true false true true)
  (=> (= pitch_rate_desired (fp #b0 #b00000000 #b00000000000000000000000))
  (=> (dynamic_invariant1 pitch_rate_desired true false true true)
  (=> (= yaw_rate_desired (fp #b0 #b00000000 #b00000000000000000000000))
  (=> (dynamic_invariant1 yaw_rate_desired true false true true)
  (=> (fp.isFinite32 pitch_rate_desired)
  (=> (dynamic_invariant
  get_out_subtype__controller_get_desired_rate__roll_rate_desired true true
  true true)
  (=> (dynamic_invariant
  get_out_subtype__controller_get_desired_rate__pitch_rate_desired true true
  true true)
  (=> (dynamic_invariant
  get_out_subtype__controller_get_desired_rate__yaw_rate_desired true true
  true true)
  (=>
  (fp.isFinite32 get_out_subtype__controller_get_desired_rate__roll_rate_desired)
  (in_range
  get_out_subtype__controller_get_desired_rate__pitch_rate_desired))))))))))))))))))
(check-sat)
